proyfinal/src/viki/013/experimentInOfficeAgust.take6.output/bf273058-4912-44e1-b4a1-68f294c51764.als.out
Reading from standard input... Use '--help' for help.
============================[ Problem Statistics ]=============================
|                                                                             |
|  Number of variables:         87638                                         |
|  Number of clauses:          161767                                         |
|  Parse time:                   0.03 s                                       |
|                                                                             |
============================[ Search Statistics ]==============================
| Conflicts |          ORIGINAL         |          LEARNT          | Progress |
|           |    Vars  Clauses Literals |    Limit  Clauses Lit/Cl |          |
===============================================================================
|       100 |   63793   110351   275475 |    40462      100     11 | 27.209 % |
|       250 |   63776   110336   275439 |    44508      246     17 | 27.228 % |
|       475 |   63776   110336   275439 |    48959      471     30 | 27.228 % |
|       812 |   63774   110258   275259 |    53854      805     43 | 27.230 % |
|      1318 |   63745   110098   274904 |    59240     1305     54 | 27.263 % |
|      2077 |   63691   110065   274820 |    65164     2061     62 | 27.325 % |
|      3216 |   63690   109900   274380 |    71680     3171     59 | 27.326 % |
|      4924 |   63661   109786   274072 |    78849     4800     66 | 27.359 % |
|      7486 |   63661   109786   274072 |    86733     7362     80 | 27.359 % |
|     11330 |   63657   109770   274028 |    95407    11188     88 | 27.364 % |
|     17096 |   55998    84824   212376 |   104948    16112     90 | 36.103 % |
===============================================================================
restarts              : 63
conflicts             : 17527          (7306 /sec)
decisions             : 61673          (0.00 % random) (25708 /sec)
propagations          : 20823408       (8679953 /sec)
conflict literals     : 1546338        (50.61 % deleted)
Memory used           : 43.26 MB
CPU time              : 2.39902 s

INDETERMINATE
